NAME: tsp30-42
TYPE: TSP
DIMENSION: 30
EDGE_WEIGHT_TYPE: EUC_2D
NODE_COORD_SECTION
0 63 5
1 96 45
2 70 13
3 100 39
4 58 18
5 64 80
6 28 88
7 33 83
8 52 23
9 68 19
10 12 96
11 28 34
12 42 47
13 84 6
14 43 53
15 35 85
16 83 99
17 61 11
18 10 45
19 81 32
20 33 34
21 86 57
22 70 67
23 84 16
24 52 61
25 27 37
26 68 30
27 61 19
28 74 67
29 99 75
EOF